* ENCODING=ISO-8859-1
NAME          CPLEX
ROWS
 N  obj1    
 G  c1      
 G  c2      
 G  c3      
 G  c4      
 G  c5      
 G  c6      
 G  c7      
 G  c8      
 G  c9      
 G  c10     
 G  c11     
 G  c12     
 G  c13     
 G  c14     
 G  c15     
 G  c16     
 G  c17     
 G  c18     
 G  c19     
 G  c20     
 G  c21     
 G  c22     
 G  c23     
 G  c24     
 G  c25     
 G  c26     
 G  c27     
 G  c28     
 G  c29     
 G  c30     
COLUMNS
    MARK0000  'MARKER'                 'INTORG'
    x1        obj1                            1
    x1        c3                            394
    x1        c21                           135
    x1        c24                           213
    x2        obj1                            1
    x2        c3                            405
    x2        c20                           187
    x2        c26                           617
    x3        obj1                            1
    x3        c30                           410
    x4        obj1                            1
    x4        c4                            336
    x4        c5                            369
    x4        c13                           788
    x4        c24                           926
    x5        obj1                            1
    x5        c15                           579
    x5        c20                           744
    x6        obj1                            1
    x6        c24                           494
    x6        c30                           721
    x7        obj1                            1
    x7        c22                           590
    x8        obj1                            1
    x8        c17                           926
    x8        c23                           774
    x8        c24                           230
    x8        c27                           760
    x9        obj1                            1
    x9        c2                            312
    x9        c18                           684
    x10       obj1                            1
    x11       obj1                            1
    x11       c1                            654
    x11       c9                            813
    x11       c10                           335
    x11       c17                           810
    x11       c20                           186
    x12       obj1                            1
    x12       c6                            582
    x12       c11                           395
    x12       c23                           998
    x12       c26                           622
    x13       obj1                            1
    x13       c6                            982
    x13       c14                           152
    x13       c26                           126
    x14       obj1                            1
    x14       c5                            796
    x14       c29                           590
    x15       obj1                            1
    x15       c5                            538
    x15       c18                           974
    x16       obj1                            1
    x16       c4                            623
    x16       c8                            884
    x16       c12                           786
    x16       c17                           278
    x16       c18                           459
    x16       c19                           326
    x17       obj1                            1
    x17       c4                            533
    x17       c7                            441
    x18       obj1                            1
    x18       c6                            564
    x18       c7                            985
    x18       c14                           145
    x18       c17                           470
    x18       c21                           792
    x19       obj1                            1
    x19       c1                            290
    x19       c13                           833
    x20       obj1                            1
    x20       c2                            119
    x20       c5                            233
    x21       obj1                            1
    x21       c7                            285
    x21       c22                           555
    x21       c29                           531
    x22       obj1                            1
    x22       c4                            138
    x22       c16                           812
    x22       c29                           147
    x23       obj1                            1
    x23       c2                            572
    x24       obj1                            1
    x24       c12                           829
    x24       c13                           746
    x24       c30                           411
    x25       obj1                            1
    x25       c8                            689
    x25       c13                           830
    x26       obj1                            1
    x26       c5                            625
    x26       c22                           366
    x26       c24                           982
    x26       c27                           502
    x27       obj1                            1
    x27       c10                           142
    x27       c14                           934
    x28       obj1                            1
    x28       c11                           388
    x28       c30                           638
    x29       obj1                            1
    x29       c9                            192
    x29       c18                           925
    x29       c21                           405
    x29       c29                           645
    x30       obj1                            1
    x30       c17                           757
    x30       c20                           996
    x31       obj1                            1
    x31       c5                            845
    x31       c8                            205
    x31       c29                           419
    x32       obj1                            1
    x32       c8                            402
    x32       c26                           155
    x33       obj1                            1
    x33       c26                           701
    x33       c30                           857
    x34       obj1                            1
    x35       obj1                            1
    x35       c1                            525
    x35       c2                            449
    x35       c23                           474
    x35       c26                           885
    x36       obj1                            1
    x36       c5                            201
    x36       c25                           496
    x36       c29                           516
    x37       obj1                            1
    x37       c4                            141
    x38       obj1                            1
    x38       c4                            503
    x38       c25                           119
    x39       obj1                            1
    x39       c8                            116
    x39       c14                           307
    x40       obj1                            1
    x40       c26                           254
    x41       obj1                            1
    x41       c18                           448
    x41       c22                           448
    x42       obj1                            1
    x42       c16                           858
    x42       c19                           884
    x42       c24                           724
    x42       c26                           399
    x43       obj1                            1
    x43       c23                           122
    x43       c30                           354
    x44       obj1                            1
    x44       c1                            440
    x44       c6                            329
    x44       c7                            308
    x44       c20                           339
    x44       c27                           336
    x45       obj1                            1
    x45       c15                           250
    x45       c25                           112
    x45       c30                           496
    x46       obj1                            1
    x46       c1                            317
    x46       c6                            385
    x46       c8                            736
    x46       c19                           760
    x47       obj1                            1
    x47       c2                            284
    x47       c16                           132
    x47       c21                           214
    x48       obj1                            1
    x48       c2                            891
    x48       c10                           167
    x48       c14                           828
    x49       obj1                            1
    x49       c15                           990
    x49       c16                           356
    x50       obj1                            1
    x50       c11                           929
    x50       c22                           940
    x50       c28                           424
    x51       obj1                            1
    x51       c9                            479
    x51       c29                           735
    x52       obj1                            1
    x52       c6                            881
    x52       c20                           189
    x52       c21                           667
    x52       c22                           722
    x52       c27                           117
    x53       obj1                            1
    x53       c3                            913
    x53       c22                           534
    x53       c28                           939
    x54       obj1                            1
    x54       c4                            509
    x54       c5                            571
    x54       c7                            185
    x54       c22                           496
    x55       obj1                            1
    x55       c1                            795
    x55       c21                           140
    x55       c29                           843
    x56       obj1                            1
    x56       c5                            313
    x57       obj1                            1
    x57       c4                            475
    x57       c9                            711
    x57       c12                           697
    x57       c22                           796
    x57       c29                           941
    x58       obj1                            1
    x58       c15                           441
    x59       obj1                            1
    x59       c9                            318
    x59       c16                           264
    x59       c28                           695
    x60       obj1                            1
    x60       c7                            742
    x60       c18                           791
    x60       c19                           238
    x60       c27                           937
    x60       c28                           791
    MARK0001  'MARKER'                 'INTEND'
RHS
    rhs       c1                           1511
    rhs       c2                           1314
    rhs       c3                            856
    rhs       c4                           1629
    rhs       c5                           2246
    rhs       c6                           1862
    rhs       c7                           1473
    rhs       c8                           1516
    rhs       c9                           1257
    rhs       c10                           322
    rhs       c11                           856
    rhs       c12                          1156
    rhs       c13                          1599
    rhs       c14                          1183
    rhs       c15                          1130
    rhs       c16                          1211
    rhs       c17                          1621
    rhs       c18                          2141
    rhs       c19                          1104
    rhs       c20                          1321
    rhs       c21                          1177
    rhs       c22                          2724
    rhs       c23                          1184
    rhs       c24                          1785
    rhs       c25                           364
    rhs       c26                          1880
    rhs       c27                          1326
    rhs       c28                          1425
    rhs       c29                          2684
    rhs       c30                          1944
BOUNDS
 LI bnd       x1        0
 LI bnd       x2        0
 LI bnd       x3        0
 LI bnd       x4        0
 LI bnd       x5        0
 LI bnd       x6        0
 LI bnd       x7        0
 LI bnd       x8        0
 LI bnd       x9        0
 LI bnd       x10       0
 LI bnd       x11       0
 LI bnd       x12       0
 LI bnd       x13       0
 LI bnd       x14       0
 LI bnd       x15       0
 LI bnd       x16       0
 LI bnd       x17       0
 LI bnd       x18       0
 LI bnd       x19       0
 LI bnd       x20       0
 LI bnd       x21       0
 LI bnd       x22       0
 LI bnd       x23       0
 LI bnd       x24       0
 LI bnd       x25       0
 LI bnd       x26       0
 LI bnd       x27       0
 LI bnd       x28       0
 LI bnd       x29       0
 LI bnd       x30       0
 LI bnd       x31       0
 LI bnd       x32       0
 LI bnd       x33       0
 LI bnd       x34       0
 LI bnd       x35       0
 LI bnd       x36       0
 LI bnd       x37       0
 LI bnd       x38       0
 LI bnd       x39       0
 LI bnd       x40       0
 LI bnd       x41       0
 LI bnd       x42       0
 LI bnd       x43       0
 LI bnd       x44       0
 LI bnd       x45       0
 LI bnd       x46       0
 LI bnd       x47       0
 LI bnd       x48       0
 LI bnd       x49       0
 LI bnd       x50       0
 LI bnd       x51       0
 LI bnd       x52       0
 LI bnd       x53       0
 LI bnd       x54       0
 LI bnd       x55       0
 LI bnd       x56       0
 LI bnd       x57       0
 LI bnd       x58       0
 LI bnd       x59       0
 LI bnd       x60       0
ENDATA
